p cnf 77 294
-3 1 0
-3 2 0
-1 -2 3 0
5 -4 -6 0
-5 4 -6 0
5 4 6 0
-5 -4 6 0
-7 4 0
-7 6 0
-4 -6 7 0
-8 3 0
-8 7 0
-3 -7 8 0
11 9 0
11 -10 0
-9 10 -11 0
-12 -3 0
-12 11 0
3 -11 12 0
-13 12 0
-13 9 0
-12 -9 13 0
14 8 0
14 -13 0
-8 13 -14 0
15 4 0
15 -1 0
-4 1 -15 0
16 -15 0
16 3 0
15 -3 -16 0
17 10 0
17 -16 0
-10 16 -17 0
18 -4 0
18 4 0
-17 18 -19 0
17 -18 -19 0
-17 -18 19 0
17 18 19 0
-14 -19 -20 0
14 19 -20 0
-14 19 20 0
14 -19 20 0
-22 -4 0
-22 21 0
4 -21 22 0
23 22 0
23 -11 0
-22 11 -23 0
-24 20 0
-24 23 0
-20 -23 24 0
-26 2 0
-26 25 0
-2 -25 26 0
-27 -11 0
-27 26 0
11 -26 27 0
28 1 0
28 -21 0
-1 21 -28 0
21 28 -29 0
-21 -28 -29 0
21 -28 29 0
-21 28 29 0
4 -21 -30 0
-4 21 -30 0
4 21 30 0
-4 -21 30 0
12 30 -31 0
-12 -30 -31 0
12 -30 31 0
-12 30 31 0
-29 31 -32 0
29 -31 -32 0
-29 -31 32 0
29 31 32 0
-27 -32 -33 0
27 32 -33 0
-27 32 33 0
27 -32 33 0
-34 15 0
-34 -6 0
-15 6 34 0
35 11 0
35 1 0
-11 -1 -35 0
37 -35 0
37 36 0
35 -36 -37 0
-1 -21 -38 0
1 21 -38 0
-1 21 38 0
1 -21 38 0
-39 -3 0
-39 -26 0
3 26 39 0
38 -39 -40 0
-38 39 -40 0
38 39 40 0
-38 -39 40 0
41 -37 0
41 40 0
37 -40 -41 0
42 34 0
42 -41 0
-34 41 -42 0
43 33 0
43 42 0
-33 -42 -43 0
44 25 0
44 -1 0
-25 1 -44 0
10 18 -45 0
-10 -18 -45 0
10 -18 45 0
-10 18 45 0
-46 44 0
-46 -45 0
-44 45 46 0
-43 46 -47 0
43 -46 -47 0
-43 -46 47 0
43 46 47 0
24 47 -48 0
-24 -47 -48 0
24 -47 48 0
-24 47 48 0
-26 -30 -49 0
26 30 -49 0
-26 30 49 0
26 -30 49 0
48 49 -50 0
-48 -49 -50 0
48 -49 50 0
-48 49 50 0
-51 26 0
-51 -9 0
-26 9 51 0
52 -39 0
52 -51 0
39 51 -52 0
5 53 0
-5 53 0
53 28 -54 0
-53 -28 -54 0
53 -28 54 0
-53 28 54 0
55 31 0
55 -54 0
-31 54 -55 0
-52 55 -56 0
52 -55 -56 0
-52 -55 56 0
52 55 56 0
57 -26 0
57 38 0
26 -38 -57 0
-56 57 -58 0
56 -57 -58 0
-56 -57 58 0
56 57 58 0
9 18 -59 0
-9 -18 -59 0
9 -18 59 0
-9 18 59 0
-54 -1 -60 0
54 1 -60 0
-54 1 60 0
54 -1 60 0
61 -60 0
61 22 0
60 -22 -61 0
-59 61 -62 0
59 -61 -62 0
-59 -61 62 0
59 61 62 0
-63 58 0
-63 -62 0
-58 62 63 0
-4 26 -64 0
4 -26 -64 0
-4 -26 64 0
4 26 64 0
-65 -26 0
-65 31 0
26 -31 65 0
-51 -65 -66 0
51 65 -66 0
-51 65 66 0
51 -65 66 0
-67 -64 0
-67 -66 0
64 66 67 0
-68 -3 0
-68 6 0
3 -6 68 0
68 -69 -70 0
-68 69 -70 0
68 69 70 0
-68 -69 70 0
-71 67 0
-71 70 0
-67 -70 71 0
-72 25 0
-72 -53 0
-25 53 72 0
73 -71 0
73 72 0
71 -72 -73 0
74 -63 0
74 -73 0
63 73 -74 0
22 10 -75 0
-22 -10 -75 0
22 -10 75 0
-22 10 75 0
-76 -74 0
-76 75 0
74 -75 76 0
50 76 -77 0
-50 -76 -77 0
50 -76 77 0
-50 76 77 0
49 -10 0
35 -31 15 -42 33 0
-50 -21 -72 -59 -2 0
3 6 41 69 -47 0
6 -72 -20 0
-72 -61 -59 75 0
56 2 -9 -6 0
22 56 6 0
74 66 -51 -71 -49 0
7 24 -71 -10 0
-24 38 62 -68 0
9 63 -14 26 0
-74 21 59 0
74 -34 -35 -48 -52 0
-32 -73 -74 35 50 43 0
38 -27 0
-7 40 0
-34 26 -14 28 0
44 -51 2 0
40 -73 0
59 9 0
-21 65 -35 17 0
52 32 -51 -12 0
70 22 27 -40 77 0
75 70 0
61 -46 -21 14 0
-66 -47 -35 0
-26 9 2 0
8 -43 0
-13 -39 10 65 67 0
-2 7 64 0
72 38 -74 -15 -53 0
-62 52 -35 47 -2 0
21 -27 -54 -61 -17 56 0
73 69 0
-19 37 -58 0
50 -27 49 68 37 3 0
-16 44 -31 -34 -55 -32 0
-13 -27 35 76 38 0
-41 -9 -47 -11 3 -15 0
-30 -36 0
17 -51 -47 0
77 -43 71 9 -46 0
2 -63 -67 42 0
-14 10 28 26 -11 -46 0
-72 54 0
1 -60 -18 -62 -77 0
48 36 0
-7 74 -31 72 -66 0
-4 49 -34 0
17 53 -52 0
-3 -45 32 -55 0
-5 -73 -12 -18 62 0
-44 68 -34 60 -70 -8 0
-62 26 0
69 63 -77 23 16 0
-58 -61 57 -40 37 -11 0
-74 -34 0
-5 38 13 -21 66 -18 0
-2 15 -53 0
-30 -32 -31 0
64 1 0
-13 30 -1 29 -36 -22 0
26 11 -69 17 0
53 -41 -11 0
-44 -68 0
72 54 -10 64 -22 0
-54 -41 16 -69 -72 73 0
77 0
